NAME: I4661-n29-k6
COMMENT : (Fake et al, No of trucks: 6, Optimal value: )
TYPE : CVRP
DIMENSION : 29
EDGE_WEIGHT_TYPE : EUC_2D
CAPACITY : 28
NODE_COORD_SECTION
1 894 664
2 538 21
3 920 955
4 285 301
5 950 260
6 390 946
7 171 776
8 65 606
9 868 962
10 417 815
11 371 752
12 499 688
13 123 620
14 361 348
15 228 3
16 621 439
17 254 263
18 456 700
19 535 930
20 935 507
21 394 412
22 350 710
23 120 422
24 644 283
25 982 259
26 529 805
27 482 882
28 729 171
29 918 289
DEMAND_SECTION
1 0
2 11
3 7
4 3
5 3
6 2
7 7
8 10
9 1
10 10
11 6
12 1
13 1
14 4
15 2
16 4
17 6
18 4
19 1
20 4
21 9
22 3
23 5
24 8
25 3
26 5
27 2
28 7
29 7
DEPOT_SECTION
 1
 -1
 EOF 